FILENAME:   /home/mcs001/s132664/testsets/IP/miplib2017/neos-3755335-nizao.mps.gz
SETTINGS:   settings_isopr_minimalindexbranching_avoidsubtreenodes
TIMELIMIT:  7200
OUTPUTNAME: final_miplib_symretope_if_extended_generating_set_cpx_v802__settings_isopr_minimalindexbranching_avoidsubtreenodes__1__
BINNAME:    bin/symmetries.linux.x86_64.gnu.opt.cpx
BASENAME:   neos-3755335-nizao.mps.gz
SEED:       1
@01 /home/mcs001/s132664/testsets/IP/miplib2017/neos-3755335-nizao.mps.gz ===========
@02 neos-3755335-nizao.mps.gz
@03 1686566709
SCIP version 8.0.2 [precision: 8 byte] [memory: block] [mode: optimized] [LP solver: CPLEX 20.1.0.0] [GitHash: 5f0473c]
Copyright (C) 2002-2022 Konrad-Zuse-Zentrum fuer Informationstechnik Berlin (ZIB)

Symmetry handling routines - (c) Marc Pfetsch, Thomas Rehn, Christopher Hojny.
[GitHash: a1587cb]


Turned off presolver <gateextraction>.
reading parameter file <../settings/settings_isopr_minimalindexbranching_avoidsubtreenodes.set> ...

Changed settings:
limits/time = 7200
limits/restarts = 0
randomization/randomseedshift = 1
constraints/orbitope/sepafreq = -1
constraints/orbitope/propfreq = 1
presolving/gateextraction/maxrounds = 0
propagating/isoprune/avoidsubtreenodes = TRUE
useisoprune = TRUE
usebranchfirst = TRUE


solving problem ...

original problem has 40938 variables (5226 bin, 0 int, 0 impl, 35712 cont) and 111026 constraints
presolving:
(round 1, exhaustive) 0 del vars, 0 del conss, 0 add conss, 0 chg bounds, 18 chg sides, 252 chg coeffs, 72104 upgd conss, 0 impls, 428 clqs
   (17.2s) probing: 1000/5226 (19.1%) - 0 fixings, 0 aggregations, 839072 implications, 0 bound changes
   (17.2s) probing: 1001/5226 (19.2%) - 0 fixings, 0 aggregations, 841418 implications, 0 bound changes
   (17.2s) probing aborted: 1000/1000 successive useless probings
Required symmetry:			(1 bin, 0 int, 0 cont); (fixed: 0 bin, 1 int, 0 cont)
Time for symmetry detection:		1.97 	(matrix graph, 270962 nodes, 1095672 edges)
Number of generators:			12 	(max: 1500)
Order of symmetry group:		18432
Log10 of symmetry group order:		4.3
Number of vars moved by some symmetry:	27950
Total time for symmetry detection:	2.01

Turned off presolver <domcol>.
Turned off presolver <components>.

presolving (2 rounds: 2 fast, 2 medium, 2 exhaustive):
 0 deleted vars, 12 deleted constraints, 48 added constraints, 0 tightened bounds, 0 added holes, 18 changed sides, 258 changed coefficients
 889039 implications, 24231 cliques
presolved problem has 40938 variables (5226 bin, 0 int, 0 impl, 35712 cont) and 111063 constraints
  71424 constraints of type <varbound>
     54 constraints of type <knapsack>
    428 constraints of type <setppc>
  38922 constraints of type <linear>
    234 constraints of type <logicor>
      1 constraints of type <symmetries>
Presolving Time: 18.96

 time | node  | left  |LP iter|LP it/n|mem/heur|mdpt |frac |vars |cons |cols |rows |cuts |confs|strbr|  dualbound   | primalbound  |  gap   
 22.5s|     1 |     0 |   817 |     - |   600M |   0 | 837 |  40k| 111k|  40k| 111k|   0 |  20 |   0 | 5.003016e+01 |      --      |    Inf 
 28.4s|     1 |     2 |  3617 |     - |   625M |   0 | 837 |  40k| 111k|  40k| 111k|   0 |  22 |   0 | 5.003016e+01 |      --      |    Inf 
  212s|   100 |    99 |  4644 |  10.4 |   633M |  98 |  74 |  40k| 111k|  40k| 111k|   0 |  28 |   0 | 5.003016e+01 |      --      |    Inf 
  700s|   200 |   190 |  5993 |  11.9 |   638M | 170 |  70 |  40k| 111k|  40k| 111k|   0 |  68 |   0 | 5.003016e+01 |      --      |    Inf 
r 997s|   247 |     0 |  6721 |  12.6 |shifting| 170 |   - |  40k| 111k|  40k| 111k|   0 | 102 |   0 | 5.003016e+01 | 5.003016e+01 |   0.00%

SCIP Status        : problem is solved [optimal solution found]
Solving Time (sec) : 996.90
Solving Nodes      : 247
Primal Bound       : +5.00301565326000e+01 (1 solutions)
Dual Bound         : +5.00301565326000e+01
Gap                : 0.00 %

Number of variables fixed to 0 by isomorphism pruning:	   173
Number of variables fixed to 1 by isomorphism pruning:	     0
@04 1686567709
